41 81 90 24 74 16 98 0 40 61 26 92 32 38 89 99 88 51 71 56 30 47 54 37 82 69 46 93 43 1 9 67 86 13 28 34 84 11 64 91 33 3 83 36 42 70 66 27 14 55 57 6 44 59 29 39 52 49 94 2 48 15 8 4 63 62 22 97 77 79 5 85 72 53 19 50 87 65 25 20 75 80 60 17 10 96 21 76 95 23 68 7 58 31 35 78 18 73 12 45 

